40
1 0 10
2 0 72
2 1 7
3 0 51
3 1 65
3 2 29
4 0 87
4 1 90
4 2 98
4 3 75
5 0 37
5 1 70
5 2 81
5 3 13
5 4 5
6 0 30
6 1 37
6 2 17
6 3 20
6 4 52
6 5 12
7 0 7
7 1 24
7 2 77
7 3 77
7 4 16
7 5 88
7 6 95
8 0 12
8 1 50
8 2 20
8 3 95
8 4 25
8 5 9
8 6 96
8 7 96
9 0 6
9 1 32
9 2 70
9 3 83
9 4 35
9 5 68
9 6 41
9 7 16
9 8 87
10 0 98
10 1 79
10 2 5
10 3 92
10 4 53
10 5 53
10 6 41
10 7 56
10 8 8
10 9 94
11 0 47
11 1 52
11 2 44
11 3 98
11 4 88
11 5 24
11 6 7
11 7 56
11 8 37
11 9 80
11 10 12
12 0 47
12 1 10
12 2 50
12 3 57
12 4 49
12 5 93
12 6 46
12 7 68
12 8 55
12 9 43
12 10 51
12 11 68
13 0 79
13 1 32
13 2 16
13 3 49
13 4 10
13 5 50
13 6 46
13 7 96
13 8 45
13 9 11
13 10 4
13 11 83
13 12 94
14 0 11
14 1 68
14 2 44
14 3 58
14 4 34
14 5 13
14 6 91
14 7 9
14 8 10
14 9 7
14 10 26
14 11 33
14 12 72
14 13 40
15 0 72
15 1 12
15 2 62
15 3 33
15 4 30
15 5 39
15 6 71
15 7 81
15 8 17
15 9 26
15 10 44
15 11 42
15 12 54
15 13 23
15 14 60
16 0 76
16 1 12
16 2 57
16 3 67
16 4 78
16 5 33
16 6 82
16 7 49
16 8 76
16 9 71
16 10 74
16 11 43
16 12 87
16 13 39
16 14 24
16 15 34
17 0 44
17 1 50
17 2 11
17 3 99
17 4 42
17 5 80
17 6 62
17 7 78
17 8 67
17 9 1
17 10 24
17 11 88
17 12 100
17 13 61
17 14 8
17 15 14
17 16 20
18 0 3
18 1 76
18 2 42
18 3 35
18 4 53
18 5 96
18 6 15
18 7 28
18 8 27
18 9 69
18 10 28
18 11 91
18 12 18
18 13 3
18 14 91
18 15 81
18 16 86
18 17 5
19 0 38
19 1 25
19 2 44
19 3 1
19 4 44
19 5 57
19 6 20
19 7 5
19 8 87
19 9 66
19 10 41
19 11 6
19 12 63
19 13 84
19 14 61
19 15 42
19 16 49
19 17 52
19 18 38
20 0 65
20 1 69
20 2 21
20 3 28
20 4 41
20 5 92
20 6 4
20 7 45
20 8 25
20 9 97
20 10 73
20 11 15
20 12 95
20 13 56
20 14 61
20 15 20
20 16 55
20 17 38
20 18 23
20 19 4
21 0 36
21 1 29
21 2 58
21 3 95
21 4 43
21 5 11
21 6 8
21 7 62
21 8 35
21 9 68
21 10 69
21 11 9
21 12 43
21 13 94
21 14 96
21 15 76
21 16 53
21 17 18
21 18 80
21 19 3
21 20 8
22 0 89
22 1 22
22 2 67
22 3 15
22 4 70
22 5 47
22 6 16
22 7 59
22 8 45
22 9 20
22 10 36
22 11 46
22 12 23
22 13 67
22 14 47
22 15 50
22 16 12
22 17 6
22 18 99
22 19 19
22 20 86
22 21 38
23 0 22
23 1 68
23 2 62
23 3 69
23 4 50
23 5 71
23 6 78
23 7 40
23 8 17
23 9 21
23 10 25
23 11 7
23 12 7
23 13 30
23 14 73
23 15 91
23 16 92
23 17 73
23 18 6
23 19 74
23 20 97
23 21 14
23 22 42
24 0 40
24 1 83
24 2 59
24 3 15
24 4 67
24 5 19
24 6 30
24 7 38
24 8 22
24 9 2
24 10 46
24 11 71
24 12 23
24 13 39
24 14 56
24 15 79
24 16 56
24 17 93
24 18 79
24 19 27
24 20 71
24 21 73
24 22 20
24 23 77
25 0 4
25 1 1
25 2 75
25 3 62
25 4 75
25 5 1
25 6 56
25 7 61
25 8 72
25 9 91
25 10 90
25 11 99
25 12 37
25 13 64
25 14 67
25 15 46
25 16 77
25 17 89
25 18 46
25 19 89
25 20 2
25 21 92
25 22 56
25 23 100
25 24 45
26 0 63
26 1 31
26 2 21
26 3 13
26 4 21
26 5 74
26 6 51
26 7 88
26 8 29
26 9 47
26 10 94
26 11 64
26 12 38
26 13 22
26 14 99
26 15 1
26 16 5
26 17 42
26 18 21
26 19 15
26 20 10
26 21 80
26 22 64
26 23 48
26 24 76
26 25 91
27 0 94
27 1 96
27 2 51
27 3 95
27 4 35
27 5 62
27 6 21
27 7 51
27 8 76
27 9 78
27 10 61
27 11 80
27 12 65
27 13 27
27 14 37
27 15 72
27 16 60
27 17 30
27 18 14
27 19 83
27 20 60
27 21 93
27 22 40
27 23 87
27 24 50
27 25 41
27 26 14
28 0 68
28 1 13
28 2 58
28 3 51
28 4 44
28 5 12
28 6 36
28 7 96
28 8 63
28 9 34
28 10 83
28 11 64
28 12 27
28 13 48
28 14 49
28 15 2
28 16 15
28 17 30
28 18 81
28 19 100
28 20 20
28 21 41
28 22 93
28 23 93
28 24 21
28 25 75
28 26 36
28 27 36
29 0 55
29 1 11
29 2 87
29 3 47
29 4 61
29 5 26
29 6 98
29 7 36
29 8 4
29 9 59
29 10 81
29 11 86
29 12 7
29 13 41
29 14 3
29 15 36
29 16 56
29 17 18
29 18 35
29 19 89
29 20 38
29 21 35
29 22 70
29 23 46
29 24 40
29 25 75
29 26 100
29 27 36
29 28 23
30 0 37
30 1 29
30 2 1
30 3 30
30 4 26
30 5 49
30 6 37
30 7 17
30 8 87
30 9 20
30 10 28
30 11 94
30 12 85
30 13 13
30 14 95
30 15 25
30 16 38
30 17 25
30 18 67
30 19 31
30 20 30
30 21 66
30 22 46
30 23 77
30 24 93
30 25 73
30 26 1
30 27 52
30 28 5
30 29 14
31 0 43
31 1 67
31 2 48
31 3 73
31 4 45
31 5 37
31 6 51
31 7 36
31 8 14
31 9 8
31 10 70
31 11 23
31 12 40
31 13 51
31 14 10
31 15 24
31 16 57
31 17 51
31 18 80
31 19 47
31 20 11
31 21 33
31 22 41
31 23 78
31 24 15
31 25 23
31 26 77
31 27 12
31 28 28
31 29 33
31 30 14
32 0 5
32 1 93
32 2 17
32 3 58
32 4 64
32 5 28
32 6 35
32 7 22
32 8 61
32 9 45
32 10 14
32 11 84
32 12 49
32 13 43
32 14 19
32 15 65
32 16 8
32 17 6
32 18 50
32 19 45
32 20 57
32 21 90
32 22 21
32 23 50
32 24 9
32 25 99
32 26 17
32 27 64
32 28 44
32 29 64
32 30 15
32 31 68
33 0 39
33 1 83
33 2 12
33 3 2
33 4 78
33 5 94
33 6 5
33 7 92
33 8 33
33 9 76
33 10 12
33 11 9
33 12 70
33 13 4
33 14 38
33 15 36
33 16 52
33 17 14
33 18 6
33 19 64
33 20 21
33 21 34
33 22 21
33 23 46
33 24 86
33 25 99
33 26 44
33 27 72
33 28 53
33 29 67
33 30 69
33 31 58
33 32 70
34 0 73
34 1 55
34 2 46
34 3 69
34 4 18
34 5 44
34 6 71
34 7 45
34 8 74
34 9 68
34 10 38
34 11 81
34 12 29
34 13 33
34 14 2
34 15 25
34 16 36
34 17 14
34 18 70
34 19 75
34 20 20
34 21 23
34 22 49
34 23 16
34 24 59
34 25 23
34 26 6
34 27 43
34 28 50
34 29 99
34 30 35
34 31 31
34 32 20
34 33 4
35 0 23
35 1 54
35 2 42
35 3 52
35 4 70
35 5 66
35 6 68
35 7 26
35 8 19
35 9 89
35 10 2
35 11 9
35 12 75
35 13 72
35 14 46
35 15 71
35 16 33
35 17 14
35 18 14
35 19 61
35 20 44
35 21 78
35 22 1
35 23 96
35 24 94
35 25 21
35 26 28
35 27 31
35 28 59
35 29 24
35 30 26
35 31 67
35 32 76
35 33 4
35 34 15
36 0 27
36 1 37
36 2 33
36 3 88
36 4 99
36 5 95
36 6 3
36 7 26
36 8 38
36 9 45
36 10 99
36 11 81
36 12 65
36 13 4
36 14 86
36 15 12
36 16 16
36 17 30
36 18 15
36 19 71
36 20 20
36 21 27
36 22 97
36 23 53
36 24 6
36 25 32
36 26 11
36 27 73
36 28 87
36 29 99
36 30 38
36 31 38
36 32 51
36 33 5
36 34 41
36 35 5
37 0 59
37 1 45
37 2 27
37 3 63
37 4 49
37 5 13
37 6 70
37 7 79
37 8 67
37 9 55
37 10 78
37 11 80
37 12 97
37 13 55
37 14 19
37 15 79
37 16 56
37 17 5
37 18 66
37 19 58
37 20 67
37 21 43
37 22 3
37 23 67
37 24 34
37 25 77
37 26 12
37 27 3
37 28 82
37 29 22
37 30 30
37 31 74
37 32 31
37 33 23
37 34 48
37 35 77
37 36 24
38 0 40
38 1 94
38 2 22
38 3 21
38 4 18
38 5 10
38 6 93
38 7 34
38 8 57
38 9 29
38 10 35
38 11 62
38 12 72
38 13 5
38 14 98
38 15 53
38 16 8
38 17 54
38 18 76
38 19 99
38 20 26
38 21 7
38 22 30
38 23 47
38 24 2
38 25 81
38 26 74
38 27 79
38 28 98
38 29 29
38 30 73
38 31 82
38 32 82
38 33 15
38 34 77
38 35 36
38 36 28
38 37 24
39 0 79
39 1 72
39 2 7
39 3 15
39 4 95
39 5 84
39 6 60
39 7 60
39 8 87
39 9 87
39 10 8
39 11 48
39 12 73
39 13 80
39 14 33
39 15 23
39 16 12
39 17 31
39 18 60
39 19 4
39 20 47
39 21 99
39 22 100
39 23 98
39 24 37
39 25 73
39 26 33
39 27 5
39 28 32
39 29 72
39 30 61
39 31 77
39 32 56
39 33 59
39 34 50
39 35 73
39 36 98
39 37 41
39 38 30
